100
128
14
24
17
51
50
8
51
42
61
46
50
6
37
9
22
26
29
37
20
1
33
26
32
28
22
19
61
27
12
30
16
50
16
12
26
17
16
35
5
36
28
37
30
47
13
59
20
61
42
41
48
31
64
25
31
24
22
22
26
36
27
20
16
11
32
15
22
14
19
12
35
40
22
15
16
16
15
1
11
9
24
27
45
16
17
51
32
7
27
20
31
27
31
21
31
44
33
22
44
50